c "648143.clq"
p edge 100 1344
e 1 17
e 1 18
e 1 19
e 1 20
e 1 21
e 1 22
e 1 24
e 1 26
e 1 27
e 1 28
e 1 29
e 1 30
e 1 33
e 1 52
e 1 54
e 1 55
e 1 57
e 1 58
e 1 67
e 1 69
e 1 75
e 1 85
e 2 17
e 2 18
e 2 19
e 2 20
e 2 21
e 2 24
e 2 25
e 2 32
e 2 34
e 2 37
e 2 44
e 2 52
e 2 56
e 2 70
e 3 17
e 3 18
e 3 19
e 3 20
e 3 21
e 3 22
e 3 23
e 3 24
e 3 27
e 3 31
e 3 34
e 3 35
e 3 38
e 3 39
e 3 40
e 3 42
e 3 44
e 3 47
e 3 48
e 3 50
e 3 52
e 3 54
e 3 56
e 3 60
e 3 64
e 3 69
e 3 78
e 3 79
e 3 80
e 3 83
e 4 17
e 4 18
e 4 19
e 4 20
e 4 21
e 4 22
e 4 23
e 4 24
e 4 25
e 4 26
e 4 27
e 4 30
e 4 35
e 4 39
e 4 41
e 4 43
e 4 46
e 4 48
e 4 49
e 4 53
e 4 54
e 4 55
e 4 56
e 4 61
e 4 66
e 4 73
e 4 76
e 4 77
e 4 80
e 4 86
e 4 90
e 4 97
e 4 98
e 4 99
e 5 17
e 5 18
e 5 19
e 5 20
e 5 21
e 5 22
e 5 23
e 5 24
e 5 28
e 5 30
e 5 32
e 5 36
e 5 37
e 5 40
e 5 43
e 5 46
e 5 47
e 5 49
e 5 51
e 5 57
e 5 63
e 5 64
e 5 71
e 5 76
e 5 83
e 5 84
e 5 86
e 6 17
e 6 18
e 6 26
e 6 27
e 6 31
e 6 38
e 6 39
e 6 48
e 7 17
e 7 18
e 7 19
e 7 20
e 7 21
e 7 22
e 7 24
e 7 25
e 7 28
e 7 29
e 7 35
e 7 36
e 7 52
e 7 53
e 7 73
e 8 17
e 8 18
e 8 19
e 8 20
e 8 21
e 8 22
e 8 23
e 8 25
e 8 26
e 8 28
e 8 29
e 8 32
e 8 33
e 8 34
e 8 36
e 8 37
e 8 39
e 8 41
e 8 42
e 8 43
e 8 44
e 8 46
e 8 49
e 8 51
e 8 55
e 8 56
e 8 59
e 8 60
e 8 62
e 8 66
e 8 76
e 8 77
e 8 79
e 8 85
e 8 86
e 9 17
e 9 18
e 9 19
e 9 20
e 9 22
e 9 23
e 9 41
e 9 45
e 9 50
e 9 58
e 9 70
e 9 77
e 9 81
e 9 94
e 9 99
e 10 17
e 10 18
e 10 19
e 10 20
e 10 21
e 10 23
e 10 24
e 10 26
e 10 27
e 10 33
e 10 34
e 10 38
e 10 39
e 10 45
e 10 47
e 10 48
e 10 54
e 10 57
e 10 62
e 10 69
e 10 70
e 10 73
e 10 74
e 10 75
e 10 76
e 10 88
e 10 89
e 10 90
e 10 91
e 10 94
e 11 17
e 11 18
e 11 19
e 11 20
e 11 22
e 11 23
e 11 28
e 11 29
e 11 33
e 11 35
e 11 36
e 11 37
e 11 40
e 11 41
e 11 44
e 11 45
e 11 48
e 11 49
e 11 53
e 11 83
e 11 90
e 12 17
e 12 18
e 12 19
e 12 20
e 12 21
e 12 23
e 12 24
e 12 25
e 12 26
e 12 27
e 12 32
e 12 34
e 12 36
e 12 39
e 12 41
e 12 48
e 12 49
e 12 58
e 12 68
e 12 71
e 12 72
e 12 76
e 12 83
e 12 92
e 12 98
e 13 17
e 13 18
e 13 19
e 13 21
e 13 22
e 13 23
e 13 24
e 13 25
e 13 26
e 13 27
e 13 28
e 13 29
e 13 30
e 13 32
e 13 36
e 13 41
e 13 56
e 13 59
e 13 60
e 13 63
e 13 66
e 13 78
e 13 82
e 13 85
e 13 87
e 13 88
e 13 90
e 14 17
e 14 18
e 14 19
e 14 21
e 14 22
e 14 24
e 14 25
e 14 26
e 14 30
e 14 31
e 14 44
e 14 45
e 14 51
e 14 53
e 14 56
e 14 59
e 14 61
e 14 62
e 14 64
e 14 65
e 15 17
e 15 20
e 15 23
e 15 25
e 15 27
e 15 29
e 15 31
e 15 33
e 15 35
e 15 55
e 15 57
e 15 63
e 15 72
e 15 78
e 15 90
e 15 94
e 15 96
e 15 99
e 16 17
e 16 18
e 16 19
e 16 20
e 16 21
e 16 22
e 16 26
e 16 28
e 16 29
e 16 31
e 16 33
e 16 36
e 16 41
e 16 43
e 16 82
e 16 87
e 16 91
e 17 18
e 17 19
e 17 20
e 17 21
e 17 22
e 17 23
e 17 24
e 17 25
e 17 27
e 17 28
e 17 29
e 17 30
e 17 32
e 17 34
e 17 35
e 17 36
e 17 37
e 17 38
e 17 39
e 17 40
e 17 41
e 17 42
e 17 43
e 17 44
e 17 49
e 17 50
e 17 51
e 17 52
e 17 54
e 17 55
e 17 56
e 17 62
e 17 63
e 17 64
e 17 70
e 17 71
e 17 80
e 17 83
e 17 87
e 17 88
e 18 19
e 18 20
e 18 21
e 18 22
e 18 23
e 18 24
e 18 25
e 18 26
e 18 27
e 18 28
e 18 29
e 18 30
e 18 31
e 18 32
e 18 33
e 18 35
e 18 36
e 18 37
e 18 39
e 18 40
e 18 41
e 18 42
e 18 43
e 18 47
e 18 48
e 18 51
e 18 55
e 18 56
e 18 57
e 18 58
e 18 62
e 18 65
e 18 67
e 18 72
e 18 74
e 18 75
e 18 77
e 18 79
e 18 85
e 18 90
e 18 91
e 18 100
e 19 20
e 19 21
e 19 22
e 19 23
e 19 24
e 19 25
e 19 26
e 19 27
e 19 30
e 19 32
e 19 33
e 19 34
e 19 37
e 19 38
e 19 42
e 19 45
e 19 47
e 19 49
e 19 50
e 19 53
e 19 54
e 19 55
e 19 57
e 19 61
e 19 63
e 19 64
e 19 65
e 19 67
e 19 68
e 19 69
e 19 70
e 19 71
e 19 74
e 19 82
e 19 84
e 19 87
e 19 88
e 19 90
e 19 91
e 19 92
e 19 96
e 19 100
e 20 21
e 20 22
e 20 23
e 20 24
e 20 25
e 20 26
e 20 27
e 20 28
e 20 29
e 20 31
e 20 32
e 20 34
e 20 36
e 20 38
e 20 39
e 20 40
e 20 42
e 20 47
e 20 50
e 20 53
e 20 67
e 20 70
e 20 72
e 20 74
e 20 75
e 20 76
e 20 77
e 20 81
e 20 94
e 21 22
e 21 23
e 21 24
e 21 25
e 21 26
e 21 27
e 21 28
e 21 29
e 21 30
e 21 31
e 21 32
e 21 34
e 21 36
e 21 37
e 21 40
e 21 41
e 21 45
e 21 46
e 21 47
e 21 49
e 21 57
e 21 60
e 21 72
e 21 73
e 21 81
e 21 89
e 21 91
e 21 92
e 21 93
e 21 95
e 21 96
e 22 23
e 22 24
e 22 25
e 22 26
e 22 27
e 22 28
e 22 31
e 22 32
e 22 34
e 22 35
e 22 36
e 22 37
e 22 38
e 22 39
e 22 41
e 22 43
e 22 45
e 22 46
e 22 49
e 22 50
e 22 56
e 22 57
e 22 58
e 22 59
e 22 63
e 22 64
e 22 69
e 22 71
e 22 73
e 22 75
e 22 76
e 22 78
e 22 81
e 22 84
e 22 85
e 22 87
e 22 90
e 22 91
e 22 93
e 22 95
e 22 96
e 22 99
e 23 25
e 23 26
e 23 27
e 23 28
e 23 30
e 23 31
e 23 32
e 23 33
e 23 34
e 23 35
e 23 38
e 23 39
e 23 42
e 23 43
e 23 44
e 23 45
e 23 46
e 23 47
e 23 50
e 23 52
e 23 53
e 23 54
e 23 55
e 23 60
e 23 61
e 23 62
e 23 63
e 23 64
e 23 65
e 23 66
e 23 67
e 23 75
e 23 77
e 23 78
e 23 88
e 23 95
e 23 98
e 23 99
e 24 25
e 24 29
e 24 30
e 24 31
e 24 33
e 24 34
e 24 35
e 24 36
e 24 37
e 24 38
e 24 39
e 24 40
e 24 41
e 24 42
e 24 44
e 24 45
e 24 46
e 24 47
e 24 50
e 24 52
e 24 53
e 24 54
e 24 55
e 24 58
e 24 59
e 24 60
e 24 61
e 24 63
e 24 64
e 24 66
e 24 68
e 24 69
e 24 71
e 24 72
e 24 77
e 24 79
e 24 81
e 24 84
e 24 91
e 24 94
e 24 95
e 24 98
e 24 99
e 24 100
e 25 26
e 25 27
e 25 28
e 25 29
e 25 30
e 25 31
e 25 32
e 25 33
e 25 34
e 25 40
e 25 46
e 25 47
e 25 48
e 25 49
e 25 52
e 25 54
e 25 55
e 25 58
e 25 61
e 25 65
e 25 66
e 25 67
e 25 68
e 25 70
e 25 71
e 25 75
e 25 81
e 25 88
e 25 89
e 25 91
e 25 92
e 25 98
e 25 100
e 26 28
e 26 29
e 26 30
e 26 33
e 26 38
e 26 42
e 26 43
e 26 47
e 26 51
e 26 52
e 26 53
e 26 54
e 26 55
e 26 56
e 26 58
e 26 59
e 26 61
e 26 62
e 26 63
e 26 64
e 26 68
e 26 71
e 26 72
e 26 73
e 26 74
e 26 77
e 26 78
e 26 86
e 26 88
e 26 89
e 26 92
e 26 94
e 26 96
e 26 100
e 27 28
e 27 29
e 27 30
e 27 31
e 27 32
e 27 33
e 27 37
e 27 38
e 27 43
e 27 46
e 27 47
e 27 48
e 27 51
e 27 52
e 27 53
e 27 54
e 27 58
e 27 61
e 27 75
e 27 82
e 27 86
e 27 87
e 27 88
e 27 95
e 27 98
e 28 29
e 28 30
e 28 31
e 28 33
e 28 35
e 28 36
e 28 39
e 28 40
e 28 42
e 28 45
e 28 46
e 28 51
e 28 53
e 28 55
e 28 57
e 28 61
e 28 65
e 28 73
e 28 74
e 28 77
e 28 78
e 28 80
e 28 81
e 28 83
e 28 86
e 28 87
e 28 89
e 28 94
e 28 97
e 28 99
e 29 30
e 29 31
e 29 32
e 29 33
e 29 34
e 29 35
e 29 38
e 29 39
e 29 40
e 29 41
e 29 42
e 29 43
e 29 44
e 29 48
e 29 51
e 29 55
e 29 56
e 29 57
e 29 60
e 29 61
e 29 62
e 29 67
e 29 75
e 29 76
e 29 78
e 29 79
e 29 81
e 29 89
e 29 90
e 29 91
e 29 93
e 29 97
e 29 100
e 30 31
e 30 32
e 30 34
e 30 35
e 30 40
e 30 43
e 30 44
e 30 50
e 30 55
e 30 56
e 30 58
e 30 59
e 30 60
e 30 69
e 30 74
e 30 79
e 30 80
e 30 84
e 30 85
e 30 86
e 30 88
e 30 96
e 31 33
e 31 35
e 31 37
e 31 40
e 31 43
e 31 46
e 31 48
e 31 49
e 31 50
e 31 54
e 31 63
e 31 65
e 31 66
e 31 69
e 31 70
e 31 71
e 31 72
e 31 75
e 31 76
e 31 79
e 31 80
e 31 83
e 31 84
e 31 86
e 31 90
e 31 92
e 31 93
e 31 98
e 32 35
e 32 37
e 32 39
e 32 44
e 32 45
e 32 51
e 32 54
e 32 59
e 32 61
e 32 62
e 32 64
e 32 71
e 32 79
e 32 82
e 32 90
e 32 92
e 33 34
e 33 35
e 33 36
e 33 37
e 33 42
e 33 43
e 33 44
e 33 45
e 33 50
e 33 51
e 33 52
e 33 56
e 33 58
e 33 61
e 33 65
e 33 66
e 33 79
e 33 80
e 33 83
e 33 84
e 33 86
e 33 89
e 33 90
e 34 36
e 34 37
e 34 38
e 34 41
e 34 42
e 34 45
e 34 57
e 34 59
e 34 62
e 34 69
e 34 71
e 34 74
e 34 75
e 34 77
e 34 80
e 34 85
e 34 94
e 35 37
e 35 38
e 35 40
e 35 42
e 35 44
e 35 46
e 35 47
e 35 48
e 35 49
e 35 50
e 35 57
e 35 58
e 35 67
e 35 70
e 35 72
e 35 73
e 35 78
e 35 82
e 35 83
e 35 84
e 35 87
e 35 100
e 36 38
e 36 40
e 36 41
e 36 42
e 36 45
e 36 47
e 36 48
e 36 51
e 36 52
e 36 53
e 36 54
e 36 56
e 36 61
e 36 62
e 36 65
e 36 67
e 36 68
e 36 75
e 36 82
e 36 98
e 37 38
e 37 43
e 37 46
e 37 49
e 37 52
e 37 59
e 37 65
e 37 66
e 37 68
e 37 69
e 37 76
e 37 81
e 37 82
e 37 83
e 37 86
e 37 87
e 37 88
e 37 91
e 37 98
e 37 100
e 38 39
e 38 40
e 38 43
e 38 44
e 38 45
e 38 47
e 38 48
e 38 49
e 38 50
e 38 53
e 38 59
e 38 67
e 38 72
e 38 78
e 38 82
e 38 87
e 38 89
e 38 91
e 39 42
e 39 44
e 39 52
e 39 53
e 39 58
e 39 60
e 39 66
e 39 67
e 39 78
e 39 84
e 39 88
e 39 89
e 39 95
e 40 41
e 40 45
e 40 46
e 40 59
e 40 60
e 40 64
e 40 65
e 40 76
e 40 80
e 40 81
e 40 90
e 40 95
e 40 98
e 40 100
e 41 44
e 41 48
e 41 54
e 41 59
e 41 63
e 41 66
e 41 70
e 41 72
e 41 73
e 41 74
e 41 85
e 41 96
e 41 100
e 42 46
e 42 47
e 42 51
e 42 56
e 42 58
e 42 60
e 42 65
e 42 71
e 42 85
e 42 92
e 42 97
e 43 50
e 43 51
e 43 56
e 43 63
e 43 64
e 43 69
e 43 74
e 43 81
e 43 82
e 43 92
e 43 93
e 43 96
e 43 99
e 43 100
e 44 46
e 44 50
e 44 68
e 44 69
e 44 73
e 44 77
e 44 78
e 44 83
e 44 89
e 44 91
e 44 93
e 45 57
e 45 60
e 45 66
e 45 70
e 45 80
e 45 81
e 45 82
e 45 84
e 45 95
e 46 49
e 46 51
e 46 55
e 46 62
e 46 64
e 46 69
e 46 72
e 46 79
e 46 82
e 46 90
e 46 96
e 47 48
e 47 57
e 47 60
e 47 68
e 47 70
e 47 71
e 47 80
e 47 81
e 47 85
e 47 92
e 47 99
e 48 49
e 48 50
e 48 54
e 48 59
e 48 61
e 48 68
e 48 70
e 48 71
e 48 73
e 48 74
e 48 84
e 48 86
e 48 93
e 48 94
e 49 51
e 49 52
e 49 59
e 49 60
e 49 68
e 49 69
e 49 76
e 49 80
e 49 82
e 49 87
e 50 53
e 50 67
e 50 74
e 50 77
e 50 80
e 50 97
e 51 52
e 51 53
e 51 58
e 51 59
e 51 60
e 51 64
e 51 74
e 51 84
e 52 57
e 52 60
e 52 62
e 52 63
e 52 65
e 52 68
e 52 79
e 52 87
e 52 92
e 52 97
e 52 99
e 52 100
e 53 55
e 53 62
e 53 65
e 53 66
e 53 68
e 53 70
e 53 71
e 53 76
e 53 79
e 53 83
e 53 85
e 53 91
e 53 95
e 53 99
e 53 100
e 54 61
e 54 69
e 54 72
e 54 78
e 54 84
e 54 85
e 54 88
e 54 93
e 54 96
e 54 97
e 54 98
e 55 77
e 55 89
e 55 93
e 55 95
e 56 57
e 56 58
e 56 63
e 56 64
e 56 65
e 56 70
e 56 73
e 56 79
e 56 84
e 56 93
e 56 95
e 57 63
e 57 73
e 57 74
e 57 77
e 57 78
e 57 79
e 57 96
e 57 97
e 58 61
e 58 65
e 58 66
e 58 67
e 58 80
e 58 82
e 58 85
e 58 88
e 58 92
e 58 94
e 58 99
e 59 66
e 59 67
e 59 68
e 59 75
e 59 79
e 59 92
e 59 93
e 59 96
e 59 97
e 60 62
e 60 63
e 60 72
e 60 76
e 60 78
e 60 82
e 60 84
e 60 97
e 61 62
e 61 66
e 61 73
e 61 81
e 61 85
e 62 64
e 62 68
e 62 78
e 62 80
e 62 85
e 62 87
e 62 94
e 62 97
e 63 67
e 63 75
e 63 76
e 63 88
e 64 72
e 64 81
e 64 88
e 64 94
e 64 96
e 65 67
e 65 72
e 65 76
e 65 83
e 65 85
e 65 93
e 65 95
e 65 98
e 66 73
e 66 84
e 66 98
e 67 68
e 67 70
e 67 71
e 67 86
e 67 89
e 67 91
e 67 98
e 67 99
e 68 69
e 68 73
e 68 75
e 68 95
e 68 97
e 68 99
e 69 74
e 69 86
e 69 100
e 70 77
e 70 89
e 70 92
e 70 99
e 71 74
e 71 75
e 71 83
e 71 87
e 71 91
e 72 77
e 72 86
e 72 88
e 72 98
e 73 90
e 74 80
e 75 79
e 75 82
e 76 83
e 76 89
e 76 91
e 76 96
e 76 100
e 77 92
e 78 86
e 78 92
e 78 93
e 78 95
e 79 81
e 79 83
e 79 93
e 80 90
e 80 94
e 80 97
e 81 93
e 81 97
e 82 87
e 82 94
e 83 86
e 83 95
e 83 97
e 84 93
e 84 94
e 84 98
e 86 87
e 86 89
e 86 94
e 87 89
e 87 95
e 87 96
e 87 99
e 91 96
e 96 97
e 97 100
